
Log started (V20.1.0.0) Tue Apr 26 00:04:26 2022


Problem 'file.lp' read.
Read time = 0.00 sec. (0.00 ticks)
Version identifier: 20.1.0.0 | 2020-11-10 | 9bedb6d68
Found incumbent of value 1.1750000e+07 after 0.00 sec. (0.00 ticks)
Tried aggregator 2 times.
MIP Presolve eliminated 2 rows and 5 columns.
Aggregator did 2 substitutions.
Reduced MIP has 3 rows, 5 columns, and 7 nonzeros.
Reduced MIP has 0 binaries, 5 generals, 0 SOSs, and 0 indicators.
Presolve time = 0.00 sec. (0.02 ticks)
Tried aggregator 3 times.
MIP Presolve eliminated 1 rows and 1 columns.
MIP Presolve added 1 rows and 1 columns.
Aggregator did 2 substitutions.
Reduced MIP has 1 rows, 3 columns, and 3 nonzeros.
Reduced MIP has 0 binaries, 3 generals, 0 SOSs, and 0 indicators.
Presolve time = 0.00 sec. (0.01 ticks)
Tried aggregator 1 time.
MIP Presolve added 1 rows and 1 columns.
Reduced MIP has 2 rows, 4 columns, and 6 nonzeros.
Reduced MIP has 0 binaries, 4 generals, 0 SOSs, and 0 indicators.
Presolve time = 0.00 sec. (0.00 ticks)
MIP emphasis: balance optimality and feasibility.
MIP search method: dynamic search.
Parallel mode: deterministic, using up to 6 threads.
Root relaxation solution time = 0.00 sec. (0.00 ticks)

        Nodes                                         Cuts/
   Node  Left     Objective  IInf  Best Integer    Best Bound    ItCnt     Gap

*     0+    0                       1.01500e+07  6350000.0000            37.44%
*     0     0      integral     0  9250000.0000  9250000.0000        0    0.00%
Elapsed time = 0.00 sec. (0.04 ticks, tree = 0.00 MB, solutions = 2)

Root node processing (before b&c):
  Real time             =    0.00 sec. (0.04 ticks)
Parallel b&c, 6 threads:
  Real time             =    0.00 sec. (0.00 ticks)
  Sync time (average)   =    0.00 sec.
  Wait time (average)   =    0.00 sec.
                          ------------
Total (root+branch&cut) =    0.00 sec. (0.04 ticks)

Solution pool: 3 solutions saved.

MIP - Integer optimal solution:  Objective =  9.2500000000e+06
Solution time =    0.00 sec.  Iterations = 0  Nodes = 0
Deterministic time = 0.04 ticks  (43.37 ticks/sec)


Incumbent solution
Variable Name           Solution Value
quantCia1#3              250000.000000
quantCia2#1              100000.000000
quantCia2#2              200000.000000
quantCia2#3               50000.000000
quantCia3#4              400000.000000
All other variables matching '*' are 0.

Log started (V20.1.0.0) Sun May  1 03:47:32 2022


Problem 'file.lp' read.
Read time = 0.00 sec. (0.00 ticks)
Version identifier: 20.1.0.0 | 2020-11-10 | 9bedb6d68
Tried aggregator 1 time.
LP Presolve eliminated 3 rows and 12 columns.
All rows and columns eliminated.
Presolve time = 0.00 sec. (0.00 ticks)

Dual simplex - Optimal:  Objective =  0.0000000000e+00
Solution time =    0.00 sec.  Iterations = 0 (0)
Deterministic time = 0.00 ticks  (3.93 ticks/sec)


All variables matching '*' are 0.

Log started (V20.1.0.0) Sun May  1 03:49:34 2022


Problem 'file.lp' read.
Read time = 0.00 sec. (0.00 ticks)
Version identifier: 20.1.0.0 | 2020-11-10 | 9bedb6d68
Tried aggregator 1 time.
LP Presolve eliminated 7 rows and 12 columns.
All rows and columns eliminated.
Presolve time = 0.00 sec. (0.00 ticks)

Dual simplex - Optimal:  Objective =  0.0000000000e+00
Solution time =    0.00 sec.  Iterations = 0 (0)
Deterministic time = 0.01 ticks  (6.03 ticks/sec)


All variables matching '*' are 0.

Log started (V20.1.0.0) Sun May  1 03:52:40 2022


Problem 'file.lp' read.
Read time = 0.00 sec. (0.00 ticks)
Version identifier: 20.1.0.0 | 2020-11-10 | 9bedb6d68
Tried aggregator 1 time.
No LP presolve or aggregator reductions.
Presolve time = 0.00 sec. (0.01 ticks)

Iteration log . . .
Iteration:     1   Dual objective     =       3600000.000000

Dual simplex - Optimal:  Objective =  9.2500000000e+06
Solution time =    0.00 sec.  Iterations = 6 (0)
Deterministic time = 0.01 ticks  (11.44 ticks/sec)


Variable Name           Solution Value
X#1#2                    100000.000000
X#2#2                    200000.000000
X#3#1                    250000.000000
X#3#2                     50000.000000
X#4#3                    400000.000000
All other variables matching '*' are 0.
